6131
0 1 1 0 0 1 0 0 1 0 0 0 0 1 1 0 0 0 0 0 1 0 0 1 0 0 0 0 1 0 
2 1 1 2 2 2 2 2 5 5 5 5 5 14 14 2 14 14 2 2 14 5 8 8 8 8 8 13 13 14 13 13 13 14 13 14 13 13 13 13 13 13 20 20 20 20 20 20 23 20 23 20 1 23 23 23 23 23 1 1 20 28 1 1 28 28 28 28 2 28 
